c Random generated cnf formula, satisfiable: false
p cnf 10 50
3 -7 6 0
-5 9 -4 0
-8 -4 -6 0
4 -3 -2 0
3 10 -6 0
-6 -4 -5 0
-1 6 -8 0
-10 -8 -1 0
-1 -2 -9 0
-7 3 6 0
7 -2 10 0
3 10 -7 0
8 -5 7 0
6 5 -3 0
10 -7 2 0
-7 9 6 0
7 9 3 0
-5 -3 -2 0
-4 8 -2 0
10 -4 7 0
6 9 -3 0
-2 -7 -8 0
-3 2 -7 0
4 -3 1 0
2 -10 4 0
-7 5 4 0
6 10 5 0
-5 9 2 0
-10 -6 -5 0
-7 -2 8 0
7 -5 4 0
-6 3 -2 0
-6 -2 -7 0
8 -10 5 0
-4 -1 -3 0
8 4 -5 0
9 8 4 0
-5 -2 -4 0
-4 9 7 0
-4 6 1 0
9 10 4 0
2 4 -3 0
-7 4 -2 0
-1 9 2 0
-10 -8 -3 0
-5 -3 10 0
-2 -4 -9 0
9 -6 -7 0
-9 -3 1 0
5 -8 -9 0
